33D32945 STP File, STP Format Version 1.0

SECTION Comment
Name    "i080-245"
Creator "Cees Duin"
Remark  "Incidence graph"
END

SECTION Graph
Nodes 80
Edges 632
E 1 2 294
E 1 6 293
E 1 8 296
E 1 13 302
E 1 15 298
E 1 21 196
E 1 29 200
E 1 31 198
E 1 33 200
E 1 39 198
E 1 58 201
E 1 60 207
E 1 65 192
E 1 66 200
E 1 79 202
E 2 10 297
E 2 17 205
E 2 26 198
E 2 38 198
E 2 45 197
E 2 46 191
E 2 51 201
E 2 55 204
E 2 57 196
E 2 58 210
E 2 66 202
E 2 68 198
E 2 70 197
E 2 71 208
E 2 76 205
E 2 80 200
E 3 7 304
E 3 9 301
E 3 15 297
E 3 16 298
E 3 23 202
E 3 27 201
E 3 28 204
E 3 40 202
E 3 46 203
E 3 47 199
E 3 49 198
E 3 58 193
E 3 77 199
E 4 5 300
E 4 8 299
E 4 12 303
E 4 15 294
E 4 20 201
E 4 24 205
E 4 27 205
E 4 28 201
E 4 35 205
E 4 40 195
E 4 42 201
E 4 43 204
E 4 61 194
E 4 63 192
E 4 74 202
E 4 77 192
E 5 7 308
E 5 17 204
E 5 28 195
E 5 30 205
E 5 32 192
E 5 33 200
E 5 34 206
E 5 35 195
E 5 37 205
E 5 39 198
E 5 43 200
E 5 49 190
E 5 54 200
E 5 59 196
E 5 65 204
E 5 67 206
E 5 70 189
E 6 12 301
E 6 17 195
E 6 21 202
E 6 24 197
E 6 37 193
E 6 38 201
E 6 49 201
E 6 53 200
E 6 57 207
E 6 58 194
E 6 60 196
E 7 13 296
E 7 14 297
E 7 19 203
E 7 20 207
E 7 21 195
E 7 23 193
E 7 27 193
E 7 28 195
E 7 40 200
E 7 41 198
E 7 42 195
E 7 45 203
E 7 69 193
E 7 75 196
E 7 78 195
E 8 10 298
E 8 20 193
E 8 22 199
E 8 23 199
E 8 28 201
E 8 30 205
E 8 31 200
E 8 35 200
E 8 36 205
E 8 38 205
E 8 43 197
E 8 44 200
E 8 46 199
E 8 54 198
E 8 72 199
E 8 75 197
E 8 79 202
E 9 29 197
E 9 33 197
E 9 36 204
E 9 44 203
E 9 48 200
E 9 55 193
E 9 61 197
E 9 64 205
E 9 75 196
E 9 78 195
E 10 19 202
E 10 22 193
E 10 25 203
E 10 27 203
E 10 36 206
E 10 41 201
E 10 43 197
E 10 45 199
E 10 47 203
E 10 48 196
E 10 50 199
E 10 58 200
E 10 60 206
E 10 64 202
E 10 77 188
E 11 12 296
E 11 15 302
E 11 17 200
E 11 20 201
E 11 21 200
E 11 29 195
E 11 30 195
E 11 31 205
E 11 33 195
E 11 34 198
E 11 41 203
E 11 42 200
E 11 43 185
E 11 51 197
E 11 55 204
E 11 56 198
E 11 59 202
E 11 60 198
E 11 63 191
E 11 64 210
E 11 66 196
E 11 77 198
E 11 79 206
E 12 13 301
E 12 16 308
E 12 28 205
E 12 34 207
E 12 45 211
E 12 50 192
E 12 51 204
E 12 53 202
E 12 61 207
E 12 63 204
E 12 64 199
E 12 68 203
E 13 18 192
E 13 21 202
E 13 28 207
E 13 33 198
E 13 37 195
E 13 39 188
E 13 41 206
E 13 48 194
E 13 60 190
E 13 66 205
E 13 71 200
E 13 74 203
E 14 15 298
E 14 17 206
E 14 21 205
E 14 27 197
E 14 29 203
E 14 30 199
E 14 35 208
E 14 44 190
E 14 48 202
E 14 57 192
E 14 59 200
E 14 63 203
E 14 69 188
E 14 80 204
E 15 16 297
E 15 18 193
E 15 19 194
E 15 22 200
E 15 23 202
E 15 29 201
E 15 34 205
E 15 41 205
E 15 46 201
E 15 47 197
E 15 49 192
E 15 62 196
E 15 69 198
E 15 73 200
E 15 76 200
E 16 17 199
E 16 21 194
E 16 23 210
E 16 24 201
E 16 25 202
E 16 27 202
E 16 30 209
E 16 31 203
E 16 33 198
E 16 38 198
E 16 40 194
E 16 43 192
E 16 44 206
E 16 49 203
E 16 53 198
E 16 57 195
E 16 59 195
E 16 62 188
E 16 71 199
E 17 21 111
E 17 26 95
E 17 27 96
E 17 28 97
E 17 29 94
E 17 35 100
E 17 41 98
E 17 48 102
E 17 55 102
E 17 60 100
E 17 64 91
E 17 68 108
E 17 69 105
E 17 72 105
E 18 26 97
E 18 29 90
E 18 31 101
E 18 37 101
E 18 41 98
E 18 54 101
E 18 56 95
E 18 57 95
E 18 76 100
E 18 78 101
E 18 79 101
E 18 80 97
E 19 25 97
E 19 28 93
E 19 30 114
E 19 31 86
E 19 36 99
E 19 39 97
E 19 41 103
E 19 49 100
E 19 50 100
E 19 52 98
E 19 58 94
E 19 71 101
E 20 24 88
E 20 26 100
E 20 27 86
E 20 30 95
E 20 41 109
E 20 46 98
E 20 47 95
E 20 49 95
E 20 57 107
E 20 59 95
E 20 61 95
E 20 68 104
E 20 70 102
E 20 71 102
E 20 80 91
E 21 26 111
E 21 30 104
E 21 34 91
E 21 49 103
E 21 52 94
E 21 58 101
E 21 59 105
E 21 60 93
E 21 65 94
E 22 28 101
E 22 34 108
E 22 42 104
E 22 46 103
E 22 48 109
E 22 50 97
E 22 53 100
E 22 54 99
E 22 63 100
E 22 69 104
E 22 72 90
E 22 78 102
E 23 27 111
E 23 36 109
E 23 37 90
E 23 39 102
E 23 48 86
E 23 49 103
E 23 52 98
E 23 74 100
E 24 26 100
E 24 29 101
E 24 31 100
E 24 32 91
E 24 35 92
E 24 40 97
E 24 52 95
E 24 53 95
E 24 63 97
E 24 64 99
E 24 69 88
E 25 35 93
E 25 48 111
E 25 53 96
E 25 59 108
E 25 64 96
E 25 69 99
E 25 79 94
E 26 27 95
E 26 29 98
E 26 30 98
E 26 35 106
E 26 36 103
E 26 55 97
E 26 64 98
E 26 70 94
E 26 73 102
E 26 76 105
E 27 28 95
E 27 39 104
E 27 40 102
E 27 45 88
E 27 52 96
E 27 58 100
E 27 64 99
E 27 69 102
E 27 70 97
E 27 75 98
E 28 35 108
E 28 37 100
E 28 40 102
E 28 41 100
E 28 43 104
E 28 57 101
E 28 63 105
E 28 67 100
E 28 68 103
E 28 71 106
E 28 77 99
E 29 30 97
E 29 41 103
E 29 46 103
E 29 47 101
E 29 63 93
E 29 71 93
E 30 32 99
E 30 33 100
E 30 36 97
E 30 39 96
E 30 40 104
E 30 44 98
E 30 46 96
E 30 51 104
E 30 54 100
E 30 57 98
E 30 66 96
E 30 67 105
E 30 72 102
E 30 73 94
E 30 79 95
E 30 80 95
E 31 34 93
E 31 35 107
E 31 37 92
E 31 38 98
E 31 45 97
E 31 55 100
E 31 59 100
E 31 67 91
E 31 68 111
E 31 69 92
E 31 70 98
E 31 77 99
E 31 78 102
E 32 36 96
E 32 44 100
E 32 49 106
E 32 50 98
E 32 54 100
E 32 56 106
E 32 62 107
E 32 67 103
E 32 68 100
E 32 72 108
E 33 35 106
E 33 42 101
E 33 52 101
E 33 53 100
E 33 55 96
E 33 63 98
E 33 65 93
E 33 67 98
E 33 68 102
E 33 70 95
E 33 71 99
E 33 77 97
E 34 35 97
E 34 39 107
E 34 40 98
E 34 43 103
E 34 47 99
E 34 50 93
E 34 57 108
E 34 61 96
E 34 77 90
E 34 78 90
E 35 38 98
E 35 43 103
E 35 48 98
E 35 58 100
E 35 59 91
E 35 65 98
E 35 72 90
E 36 37 96
E 36 40 96
E 36 42 99
E 36 47 98
E 36 49 102
E 36 52 95
E 36 55 99
E 36 59 93
E 36 62 107
E 36 70 92
E 36 73 102
E 36 75 95
E 36 77 102
E 36 78 100
E 37 39 98
E 37 44 107
E 37 49 103
E 37 50 92
E 37 55 103
E 37 57 94
E 37 59 102
E 37 71 93
E 37 74 87
E 37 78 105
E 37 80 96
E 38 55 91
E 38 76 102
E 39 50 99
E 39 52 98
E 39 64 106
E 39 72 97
E 40 45 102
E 40 48 96
E 40 51 102
E 40 53 106
E 40 54 102
E 40 63 91
E 40 64 101
E 40 71 106
E 40 78 101
E 40 79 101
E 41 47 103
E 41 48 102
E 41 50 104
E 41 55 108
E 41 59 100
E 41 77 105
E 42 46 103
E 42 57 107
E 42 60 95
E 43 76 98
E 44 45 101
E 44 53 95
E 44 61 102
E 44 74 103
E 44 80 96
E 45 50 93
E 45 53 105
E 45 57 96
E 45 66 94
E 45 67 94
E 45 68 99
E 46 50 105
E 46 59 99
E 46 61 104
E 46 66 101
E 46 69 96
E 46 75 111
E 46 78 100
E 46 80 96
E 47 49 98
E 47 52 105
E 47 62 101
E 47 71 104
E 47 78 100
E 47 79 101
E 48 54 93
E 48 59 91
E 48 61 103
E 48 69 102
E 48 70 103
E 48 72 109
E 48 73 102
E 49 51 93
E 49 52 102
E 49 58 102
E 49 61 99
E 49 64 107
E 50 52 105
E 50 57 101
E 50 68 104
E 50 75 101
E 50 76 99
E 50 80 110
E 51 52 94
E 51 53 97
E 51 55 102
E 51 56 97
E 51 57 104
E 51 59 100
E 51 66 100
E 51 68 101
E 51 69 101
E 51 71 101
E 51 77 101
E 52 65 100
E 52 67 99
E 52 73 96
E 53 55 91
E 53 57 103
E 53 58 108
E 53 61 99
E 53 62 98
E 53 64 103
E 53 70 108
E 53 73 105
E 54 55 109
E 54 63 101
E 54 64 105
E 54 66 93
E 54 78 108
E 54 80 102
E 55 57 106
E 55 64 97
E 55 69 100
E 55 72 91
E 55 74 103
E 55 77 100
E 56 60 98
E 56 63 101
E 56 72 96
E 56 77 101
E 56 78 101
E 57 61 101
E 57 68 95
E 57 71 95
E 57 74 103
E 57 75 98
E 57 77 95
E 57 79 100
E 58 63 103
E 58 66 101
E 58 74 105
E 58 80 102
E 59 60 102
E 59 62 105
E 59 74 98
E 59 75 105
E 59 79 93
E 60 73 97
E 60 78 112
E 60 79 106
E 61 66 96
E 61 75 108
E 62 63 95
E 62 68 100
E 62 69 106
E 62 71 96
E 62 74 98
E 63 69 95
E 64 67 93
E 64 68 103
E 64 72 107
E 65 66 103
E 65 68 94
E 65 69 96
E 65 76 102
E 65 79 95
E 66 67 97
E 66 68 105
E 66 73 110
E 66 75 99
E 66 79 100
E 67 70 98
E 67 71 98
E 69 72 101
E 69 73 100
E 69 78 102
E 69 80 101
E 72 74 94
E 72 75 92
E 72 76 98
E 74 76 104
E 74 78 100
E 74 79 94
E 75 77 100
E 76 78 103
END

SECTION Terminals
Terminals 16
T 1
T 2
T 3
T 4
T 5
T 6
T 7
T 8
T 9
T 10
T 11
T 12
T 13
T 14
T 15
T 16
END

EOF
